50 368
0 9
0 12
0 16
0 20
0 22
0 26
0 30
0 36
0 39
0 40
0 46
0 49
1 3
1 4
1 6
1 13
1 14
1 15
1 18
1 25
1 29
1 30
1 32
1 38
1 40
1 47
2 7
2 8
2 15
2 18
2 20
2 21
2 23
2 28
2 29
2 35
2 40
2 45
2 46
2 47
3 5
3 6
3 9
3 12
3 13
3 16
3 21
3 22
3 24
3 27
3 31
3 41
3 42
3 45
3 46
3 47
3 48
3 49
4 6
4 15
4 17
4 18
4 21
4 25
4 31
4 39
4 41
4 48
5 10
5 15
5 16
5 18
5 21
5 23
5 30
5 34
5 36
5 37
5 39
5 40
5 44
5 49
6 14
6 15
6 16
6 19
6 20
6 28
6 32
6 34
6 36
6 37
6 39
6 43
6 45
7 10
7 11
7 12
7 14
7 20
7 25
7 26
7 29
7 38
7 40
7 41
7 42
7 43
7 44
7 45
8 9
8 15
8 21
8 22
8 23
8 27
8 31
8 32
8 39
8 42
8 43
9 10
9 13
9 22
9 23
9 28
9 34
9 37
9 38
9 41
9 43
9 44
9 47
9 48
9 49
10 12
10 14
10 15
10 16
10 17
10 18
10 24
10 25
10 32
10 36
10 37
10 38
10 39
10 42
10 43
10 44
10 45
10 46
10 47
10 48
11 13
11 17
11 20
11 24
11 27
11 28
11 36
11 37
11 38
11 47
11 49
12 13
12 14
12 16
12 23
12 24
12 31
12 33
12 36
12 38
12 41
13 15
13 17
13 21
13 25
13 33
13 34
13 37
13 39
13 44
13 45
14 17
14 19
14 20
14 26
14 29
14 30
14 31
14 33
14 34
14 35
14 36
14 41
14 42
14 43
14 49
15 17
15 20
15 21
15 25
15 29
15 34
15 41
15 45
16 17
16 18
16 20
16 22
16 23
16 27
16 30
16 32
16 33
16 37
16 40
16 41
16 42
17 20
17 22
17 25
17 26
17 30
17 31
17 38
17 43
17 46
17 48
18 20
18 29
18 32
18 47
18 48
19 20
19 22
19 28
19 29
19 31
19 35
19 37
19 41
19 42
19 46
19 48
20 22
20 30
20 41
20 42
20 46
20 49
21 25
21 28
21 37
21 45
21 46
21 47
21 48
22 26
22 31
22 32
22 33
22 35
22 38
22 39
22 40
22 47
23 27
23 28
23 31
23 38
23 42
23 43
23 46
23 48
24 26
24 27
24 28
24 40
24 41
24 46
24 47
25 30
25 34
25 35
25 41
25 42
25 44
26 29
26 32
26 35
26 36
26 38
26 39
26 44
26 45
26 46
26 48
27 28
27 30
27 31
27 32
27 33
27 34
27 36
27 37
27 44
27 49
28 39
28 40
28 41
28 42
28 48
28 49
29 31
29 34
29 37
29 44
29 45
29 47
29 48
30 32
30 33
30 34
30 38
30 41
30 43
30 48
31 33
31 34
31 35
31 40
31 45
32 38
32 39
32 44
32 46
32 47
32 49
33 37
33 43
33 44
33 47
34 37
34 48
35 46
36 38
36 42
36 44
36 46
36 49
37 42
38 42
38 45
40 44
40 45
40 49
41 44
42 43
42 47
43 45
43 46
44 45
45 48
45 49
